c Sudoku solution
p cnf 729 0
127 0
152 0
161 0
194 0
253 0
316 0
331 0
392 0
486 0
538 0
546 0
176 0
266 0
577 0
593 0
611 0
629 0
636 0
684 0
721 0
772 0
582 0
551 0
569 0
798 0
756 0
695 0
678 0
657 0
814 0
974 0
515 0
524 0
234 0
822 0
926 0
918 0
896 0
212 0
423 0
432 0
417 0
849 0
941 0
962 0
955 0
858 0
642 0
663 0
743 0
867 0
764 0
719 0
113 0
139 0
359 0
454 0
344 0
247 0
387 0
373 0
785 0
871 0
883 0
737 0
835 0
933 0
479 0
491 0
275 0
188 0
145 0
368 0
228 0
325 0
448 0
465 0
281 0
299 0
989 0
997 0
